Operations Research(Coursera)/Job Allocation Probelm/JobScheduling.lp
\ Model Job Scheduling
\ LP format - for model browsing. Use MPS format to capture full model detail.
Minimize
  0 makespan + makespan
Subject To
 R0: x[1,1] + x[2,1] + x[3,1] = 1
 R1: x[1,2] + x[2,2] + x[3,2] = 1
 R2: x[1,3] + x[2,3] + x[3,3] = 1
 R3: x[1,4] + x[2,4] + x[3,4] = 1
 R4: x[1,5] + x[2,5] + x[3,5] = 1
 R5: x[1,6] + x[2,6] + x[3,6] = 1
 R6: x[1,7] + x[2,7] + x[3,7] = 1
 R7: x[1,8] + x[2,8] + x[3,8] = 1
 R8: x[1,9] + x[2,9] + x[3,9] = 1
 R9: x[1,10] + x[2,10] + x[3,10] = 1
 R10: x[1,11] + x[2,11] + x[3,11] = 1
 R11: x[1,12] + x[2,12] + x[3,12] = 1
 R12: x[1,13] + x[2,13] + x[3,13] = 1
 R13: x[1,14] + x[2,14] + x[3,14] = 1
 R14: x[1,15] + x[2,15] + x[3,15] = 1
 R15: <= 1
 R16: x[1,5] + x[1,8] <= 1
 R17: <= 1
 R18: <= 1
 R19: x[1,2] + x[1,8] <= 1
 R20: x[1,9] <= 1
 R21: x[1,10] <= 1
 R22: x[1,2] + x[1,5] <= 1
 R23: x[1,6] <= 1
 R24: x[1,7] <= 1
 R25: x[1,15] <= 1
 R26: <= 1
 R27: <= 1
 R28: <= 1
 R29: x[1,11] <= 1
 R30: <= 1
 R31: x[2,5] + x[2,8] <= 1
 R32: <= 1
 R33: <= 1
 R34: x[2,2] + x[2,8] <= 1
 R35: x[2,9] <= 1
 R36: x[2,10] <= 1
 R37: x[2,2] + x[2,5] <= 1
 R38: x[2,6] <= 1
 R39: x[2,7] <= 1
 R40: x[2,15] <= 1
 R41: <= 1
 R42: <= 1
 R43: <= 1
 R44: x[2,11] <= 1
 R45: <= 1
 R46: x[3,5] + x[3,8] <= 1
 R47: <= 1
 R48: <= 1
 R49: x[3,2] + x[3,8] <= 1
 R50: x[3,9] <= 1
 R51: x[3,10] <= 1
 R52: x[3,2] + x[3,5] <= 1
 R53: x[3,6] <= 1
 R54: x[3,7] <= 1
 R55: x[3,15] <= 1
 R56: <= 1
 R57: <= 1
 R58: <= 1
 R59: x[3,11] <= 1
 R60: - 7 x[1,1] - 4 x[1,2] - 6 x[1,3] - 9 x[1,4] - 12 x[1,5] - 8 x[1,6]
   - 10 x[1,7] - 11 x[1,8] - 8 x[1,9] - 7 x[1,10] - 6 x[1,11] - 8 x[1,12]
   - 15 x[1,13] - 14 x[1,14] - 3 x[1,15] + makespan >= 0
 R61: - 7 x[2,1] - 4 x[2,2] - 6 x[2,3] - 9 x[2,4] - 12 x[2,5] - 8 x[2,6]
   - 10 x[2,7] - 11 x[2,8] - 8 x[2,9] - 7 x[2,10] - 6 x[2,11] - 8 x[2,12]
   - 15 x[2,13] - 14 x[2,14] - 3 x[2,15] + makespan >= 0
 R62: - 7 x[3,1] - 4 x[3,2] - 6 x[3,3] - 9 x[3,4] - 12 x[3,5] - 8 x[3,6]
   - 10 x[3,7] - 11 x[3,8] - 8 x[3,9] - 7 x[3,10] - 6 x[3,11] - 8 x[3,12]
   - 15 x[3,13] - 14 x[3,14] - 3 x[3,15] + makespan >= 0
Bounds
Binaries
 x[1,1] x[1,2] x[1,3] x[1,4] x[1,5] x[1,6] x[1,7] x[1,8] x[1,9] x[1,10]
 x[1,11] x[1,12] x[1,13] x[1,14] x[1,15] x[2,1] x[2,2] x[2,3] x[2,4] x[2,5]
 x[2,6] x[2,7] x[2,8] x[2,9] x[2,10] x[2,11] x[2,12] x[2,13] x[2,14]
 x[2,15] x[3,1] x[3,2] x[3,3] x[3,4] x[3,5] x[3,6] x[3,7] x[3,8] x[3,9]
 x[3,10] x[3,11] x[3,12] x[3,13] x[3,14] x[3,15]
End
