Operations Research(Coursera)/Job Allocation Probelm/JobScheduling.sol
# Solution for model Job Scheduling
# Objective value = 43
B0(2) 1
B1(4) 0
B2(2) 0
B3(2) 1
B4(4) 1
B5(3) 0
B6(3) 0
B7(4) 0
B8(3) 0
B9(3) 0
B10(3) 0
B11(2) 0
B12(2) 0
B13(2) 1
B14(3) 0
B15(2) 0
B16(4) 1
B17(2) 0
B18(2) 0
B19(4) 0
B20(3) 1
B21(3) 1
B22(4) 0
B23(3) 0
B24(3) 0
B25(3) 1
B26(2) 0
B27(2) 1
B28(2) 0
B29(3) 0
B30(2) 0
B31(4) 0
B32(2) 1
B33(2) 0
B34(4) 0
B35(3) 0
B36(3) 0
B37(4) 1
B38(3) 1
B39(3) 1
B40(3) 0
B41(2) 1
B42(2) 0
B43(2) 0
B44(3) 1
C45(0) 0
C46(3) 43
